AES/1_2_8/ssaes_r1-20_c2_rw1_e8_f0_k1-20_aes_1base_box_aes_mc_bidirectional/ExperimentMinisat_r13_k19cnf_2011-12-02-195804/Result
WARNING: for repeatability, setting FPU to use double precision
============================[ Problem Statistics ]=============================
|                                                                             |
|  Number of variables:          1088                                         |
|  Number of clauses:          174082                                         |
|  Parse time:                   0.10 s                                       |
|  Eliminated clauses:           0.01 Mb                                      |
|  Simplification time:          5.89 s                                       |
|                                                                             |
=============================[ Search Statistics ]==============================
| Conflicts  |          ORIGINAL         |          LEARNT          | Progress |
|            |    Vars  Clauses Literals |    Limit  Clauses Lit/Cl |          |
================================================================================
|        100 |     728   173154  1179076 |    63489      100     18 | 12.500 % |
|        250 |     728   173154  1179076 |    69838      250     19 | 12.500 % |
|        475 |     728   173154  1179076 |    76822      475     19 | 12.500 % |
|        812 |     728   173154  1179076 |    84504      812     21 | 12.500 % |
|       1318 |     728   173154  1179076 |    92955     1318     21 | 12.500 % |
|       2077 |     728   173154  1179076 |   102250     2077     21 | 12.500 % |
|       3216 |     728   173154  1179076 |   112476     3216     20 | 12.500 % |
|       4924 |     728   173154  1179076 |   123723     4924     20 | 12.500 % |
|       7486 |     728   173154  1179076 |   136096     7486     20 | 12.500 % |
|      11330 |     728   173154  1179076 |   149705    11330     20 | 12.500 % |
|      17096 |     728   173154  1179076 |   164676    17096     20 | 12.500 % |
|      25745 |     728   173154  1179076 |   181143    25745     19 | 12.500 % |
|      38719 |     728   173154  1179076 |   199258    38719     18 | 12.500 % |
|      58180 |     728   173154  1179076 |   219184    58180     17 | 12.500 % |
|      87372 |     728   173154  1179076 |   241102    87372     16 | 12.500 % |
===============================================================================
restarts              : 254
conflicts             : 89009          (385 /sec)
decisions             : 100532         (0.00 % random) (435 /sec)
propagations          : 31569986       (136632 /sec)
conflict literals     : 1395702        (44.71 % deleted)
Memory used           : 33.00 MB
CPU time              : 231.059 s

SATISFIABLE
